NPROCS=0
This instance is clustered!
Gurobi Optimizer version 9.0.0 build v9.0.0rc2 (linux64)
Optimize a model with 40 rows, 401 columns and 800 nonzeros
Model fingerprint: 0xb19d2de0
Variable types: 1 continuous, 400 integer (400 binary)
Coefficient statistics:
  Matrix range     [1e+00, 1e+00]
  Objective range  [1e+00, 4e+02]
  Bounds range     [1e+00, 1e+00]
  RHS range        [1e+00, 1e+00]
 done with super cut 0
Presolve removed 2 rows and 57 columns
Presolve time: 0.00s
Presolved: 38 rows, 344 columns, 686 nonzeros
Variable types: 1 continuous, 343 integer (343 binary)

Root relaxation: objective 6.122225e+02, 32 iterations, 0.00 seconds

    Nodes    |    Current Node    |     Objective Bounds      |     Work
 Expl Unexpl |  Obj  Depth IntInf | Incumbent    BestBd   Gap | It/Node Time

     0     0  748.96556    0    8          -  748.96556      -     -    0s
 done with super cut 1
     0     0  922.52568    0   38          -  922.52568      -     -    0s
     0     0  922.92883    0   28          -  922.92883      -     -    0s
     0     0  922.94241    0   29          -  922.94241      -     -    0s
 done with super cut 2
 done with super cut 3
 done with super cut 4
     0     2  937.26725    0   42          -  937.26725      -     -    3s
 done with super cut 5
 done with super cut 6
    26    37  981.31586    5   30          -  949.03242      -   9.3    5s
 done with super cut 7
 done with super cut 8
 done with super cut 9
 done with super cut 10
    80    78 1032.34995    6   19          -  952.39193      -   9.4   14s
*  281   280              14    1243.1997315  952.39193  23.4%   7.8   14s
H  320   311                    1226.5412155  952.39193  22.4%   7.5   14s
  3196  2037 1022.64277    9   42 1226.54122 1017.30636  17.1%   6.0   15s
H 3198  1937                    1154.2546585 1017.30636  11.9%   6.0   15s
H 3209  1846                    1154.2546461 1017.30636  11.9%   6.0   16s
H 3209  1753                    1154.2546446 1017.30636  11.9%   6.0   16s
 21937  5359 1127.59679   35   26 1154.25464 1089.76678  5.59%   7.8   20s

Cutting planes:
  Gomory: 6
  Zero half: 3
  RLT: 1
  Lazy constraints: 375

Explored 38531 nodes (347098 simplex iterations) in 23.43 seconds
Thread count was 12 (of 12 available processors)

Solution count 3: 1154.25 1226.54 1243.2 

Optimal solution found (tolerance 1.00e-04)
Best objective 1.154254644628e+03, best bound 1.154254644628e+03, gap 0.0000%

User-callback calls 80907, time in user-callback 14.46 sec
/projects/academic/josewalt/caigao/RRARP_BD/BendersDecomp/ret/model_outs/n_18_m_4_algo_4.out
 =====>>>>> Solution is written to file in <../ret/model_outs> !!!
===>> All Done!
